Solving original (integer) problem with strategy gdp.binary_multiplication...
--- Job model.gms Start 02/18/26 23:09:52 52.2.0 d8e408be LEX-LEG x86 64bit/Linux
--- Applying:
    /package/gams/52.2/gmsprmun.txt
--- GAMS Parameters defined
    Input /local/scratch/a/sgusev/repos/k_means/data/gams_gurobi_gdp.binary_multiplication/no_mode/2026-02-18_23-09-52/original/model.gms
    Output /local/scratch/a/sgusev/repos/k_means/data/gams_gurobi_gdp.binary_multiplication/no_mode/2026-02-18_23-09-52/original/output.lst
    ScrDir /local/scratch/a/sgusev/repos/k_means/data/gams_gurobi_gdp.binary_multiplication/no_mode/2026-02-18_23-09-52/original/225a/
    SysDir /package/gams/52.2/
    CurDir /local/scratch/a/sgusev/repos/k_means/data/gams_gurobi_gdp.binary_multiplication/no_mode/2026-02-18_23-09-52/original/
    LogOption 3
    AppendLog 1
Licensee: David Bernal / SECQUOIA Research Group         G251008+0003Ac-GEN
          Purdue University, Davidson School of Chemical EngineeringDCE4838
          225a/gamslice.dat
          5a82958a-fbca-4a23
          node:66820903 mem:995 cores:48 ipport:43067 v:2                  
          Evaluation license: Not for commercial or production use
          The time-limited license stops working on : Jun 30, 2027
System information: 48 physical cores and 995 Gb physical memory detected
GAMS 52.2.0   Copyright (C) 1987-2025 GAMS Development. All rights reserved
--- Starting compilation
--- model.gms(196) 2 Mb
--- $echo File /local/scratch/a/sgusev/repos/k_means/data/gams_gurobi_gdp.binary_multiplication/no_mode/2026-02-18_23-09-52/original/gurobi.opt
--- model.gms(360) 2 Mb
--- Starting execution: elapsed 0:00:00.005
--- model.gms(205) 3 Mb
--- Generating MINLP model GAMS_MODEL
--- model.gms(209) 5 Mb
---   47 rows  51 columns  181 non-zeroes
---   363 nl-code  132 nl-non-zeroes
---   33 discrete-columns
--- Range statistics (absolute non-zero finite values)
--- RHS       [min, max] : [ 1.000E+00, 1.000E+00] - Zero values observed as well
--- Bound     [min, max] : [ 1.000E+00, 4.400E+01] - Zero values observed as well
--- Matrix    [min, max] : [ 8.431E-02, 1.230E+00] - Zero values observed as well
--- model.gms(209) 3 Mb
--- Executing GUROBI (Solvelink=5): elapsed 0:00:00.008
Reading parameter(s) from "/local/scratch/a/sgusev/repos/k_means/data/gams_gurobi_gdp.binary_multiplication/no_mode/2026-02-18_23-09-52/original/gurobi.opt"
>>  NonConvex 2
>>  Threads 1
>>  MIPGap 1e-06
>>  MIPGapAbs 1e-10
>>  FeasibilityTol 1e-06
>>  OptimalityTol 1e-06
>>  IntFeasTol 1e-05
Finished reading from "/local/scratch/a/sgusev/repos/k_means/data/gams_gurobi_gdp.binary_multiplication/no_mode/2026-02-18_23-09-52/original/gurobi.opt"

... GRB_LICENSE_FILE = /local/scratch/a/sgusev/gurobi.lic

    Gurobi           52.2.0 d8e408be Dec 8, 2025           LEG x86 64bit/Linux    

... GAMS/Gurobi Link license.
... GMO Q Extraction (ThreePass): 0.00s

    Gurobi Optimizer version 13.0.0 build v13.0.0rc1 (linux64 - "Oracle Linux Server 9.7")
    
    CPU model: AMD EPYC 7643 48-Core Processor, instruction set [SSE2|AVX|AVX2]
    Thread count: 48 physical cores, 96 logical processors, using up to 1 threads
    
    Non-default parameters:
    TimeLimit  300
    MIPGap  1e-06
    LogToConsole  0
    NonConvex  2
    Threads  1
    
    Optimize a model with 46 rows, 83 columns and 70 nonzeros (Min)
    Model fingerprint: 0x0f217887
    Model has 11 linear objective coefficients
    Model has 33 general nonlinear constraints (99 nonlinear terms)
    Variable types: 50 continuous, 33 integer (0 binary)
    Coefficient statistics:
      Matrix range     [1e+00, 1e+00]
      Objective range  [1e+00, 1e+00]
      Bounds range     [1e+00, 4e+01]
      RHS range        [1e+00, 1e+00]
      NLCon coe range  [8e-03, 9e-01]
    Presolve model has 33 nlconstr
    Added 165 variables to disaggregate expressions
    Presolve removed 33 rows and 0 columns
    Presolve time: 0.00s
    Presolved: 442 rows, 282 columns, 1027 nonzeros
    Presolved model has 66 bilinear constraint(s)
    
    Solving non-convex MIQCP to global optimality
    
    Variable types: 249 continuous, 33 integer (33 binary)
    Found heuristic solution: objective 5.5559487
    
    Root relaxation: objective 0.000000e+00, 31 iterations, 0.00 seconds (0.00 work units)
    
        Nodes    |    Current Node    |     Objective Bounds      |     Work
     Expl Unexpl |  Obj  Depth IntInf | Incumbent    BestBd   Gap | It/Node Time
    
         0     0    0.00000    0   66    5.55595    0.00000   100%     -    0s
    H    0     0                       5.5099428    0.00000   100%     -    0s
    H    0     0                       5.4946075    0.00000   100%     -    0s
         0     0    0.00000    0   84    5.49461    0.00000   100%     -    0s
         0     0    0.00000    0   84    5.49461    0.00000   100%     -    0s
         0     0    0.00000    0   66    5.49461    0.00000   100%     -    0s
    H    0     0                       1.2216707    0.00000   100%     -    0s
    H    0     0                       1.2216707    0.00000   100%     -    0s
         0     0    0.00000    0   70    1.22167    0.00000   100%     -    0s
         0     0    0.00000    0   70    1.22167    0.00000   100%     -    0s
         0     2    0.00000    0   70    1.22167    0.00000   100%     -    0s
    H  151    35                       0.8837703    0.00000   100%  17.7    0s
    *  977    52              50       0.8837676    0.88234  0.16%   9.7    0s
    *  978    51              51       0.8837643    0.88234  0.16%   9.7    0s
    
    Cutting planes:
      Gomory: 4
      Implied bound: 37
      MIR: 4
      Flow cover: 25
      Inf proof: 1
      RLT: 6
    
    Explored 2140 nodes (13725 simplex iterations) in 0.93 seconds (0.58 work units)
    Thread count was 1 (of 96 available processors)
    
    Solution count 7: 0.883764 0.883768 0.88377 ... 5.55595
    
    Optimal solution found (tolerance 1.00e-06)
    Warning: max constraint violation (1.4705e-06) exceeds tolerance
    Warning: max general constraint violation (1.4705e-06) exceeds tolerance
    Best objective 8.837642791965e-01, best bound 8.837642791965e-01, gap 0.0000%
    
    User-callback calls 2154, time in user-callback 0.00 sec

... Solving fixed model...

    Gurobi Optimizer version 13.0.0 build v13.0.0rc1 (linux64 - "Oracle Linux Server 9.7")
    
    CPU model: AMD EPYC 7643 48-Core Processor, instruction set [SSE2|AVX|AVX2]
    Thread count: 48 physical cores, 96 logical processors, using up to 1 threads
    
    Non-default parameters:
    TimeLimit  300
    MIPGap  1e-06
    LogToConsole  0
    NonConvex  2
    Threads  1
    
    Optimize a model with 46 rows, 83 columns and 70 nonzeros (Min)
    Model fingerprint: 0xec292726
    Model has 11 linear objective coefficients
    Coefficient statistics:
      Matrix range     [1e+00, 1e+00]
      Objective range  [1e+00, 1e+00]
      Bounds range     [1e-03, 1e+00]
      RHS range        [1e+00, 1e+00]
    Presolve removed 46 rows and 83 columns
    Presolve time: 0.00s
    Presolve: All rows and columns removed
    Iteration    Objective       Primal Inf.    Dual Inf.      Time
           0    8.8376428e-01   0.000000e+00   0.000000e+00      0s
    
    Solved in 0 iterations and 0.00 seconds (0.00 work units)
    Optimal objective  8.837642792e-01
    
    User-callback calls 0, time in user-callback 0.00 sec

--- Reading solution for model GAMS_MODEL
***
*** Solver did not provide marginals for model GAMS_MODEL
***
--- Executing after solve: elapsed 0:00:00.984
--- model.gms(212) 3 Mb
--- model.gms(360) 5 Mb
--- Putfile results /local/scratch/a/sgusev/repos/k_means/data/gams_gurobi_gdp.binary_multiplication/no_mode/2026-02-18_23-09-52/original/results.dat
--- Putfile statresults /local/scratch/a/sgusev/repos/k_means/data/gams_gurobi_gdp.binary_multiplication/no_mode/2026-02-18_23-09-52/original/resultsstat.dat
*** Status: Normal completion
--- Job model.gms Stop 02/18/26 23:09:53 elapsed 0:00:00.984
Original problem solved. Time taken: 1.445235013961792 seconds
Original objective value: 0.883764279196539
